; PUSH cw_5 PUSH cw_4 MLOAD SWAP1 => PUSH cw_4 MLOAD PUSH cw_5
(set-option :produce-proofs true)
; 
(set-info :status unknown)
(declare-fun storage_t ((_ BitVec 256) (_ BitVec 256) (_ BitVec 256) Int (_ BitVec 256)) (_ BitVec 256))
(declare-fun w_4 () (_ BitVec 256))
(declare-fun w_5 () (_ BitVec 256))
(declare-fun storage_s ((_ BitVec 256) (_ BitVec 256) (_ BitVec 256) Int (_ BitVec 256)) (_ BitVec 256))
(declare-fun exc_halt_t (Int) Bool)
(declare-fun exc_halt_s (Int) Bool)
(declare-fun sc_t (Int) (_ BitVec 6))
(declare-fun stack_t ((_ BitVec 256) (_ BitVec 256) (_ BitVec 256) Int (_ BitVec 6)) (_ BitVec 256))
(declare-fun stack_s ((_ BitVec 256) (_ BitVec 256) (_ BitVec 256) Int (_ BitVec 6)) (_ BitVec 256))
(declare-fun sc_s (Int) (_ BitVec 6))
(declare-fun used_gas_t ((_ BitVec 256) (_ BitVec 256) (_ BitVec 256) Int) Int)
(declare-fun used_gas_s ((_ BitVec 256) (_ BitVec 256) (_ BitVec 256) Int) Int)
(declare-fun f_MLOAD ((_ BitVec 256) (_ BitVec 256) (_ BitVec 256) (_ BitVec 256)) (_ BitVec 256))
(assert
 (exists ((x_MLOAD_0 (_ BitVec 256)) )(let (($x4771 (forall ((w (_ BitVec 256)) )(let ((?x10372 (storage_t w_5 w_4 x_MLOAD_0 3 w)))
 (let ((?x8608 (storage_s w_5 w_4 x_MLOAD_0 4 w)))
 (= ?x8608 ?x10372))))
 ))
 (let (($x418 (exc_halt_t 3)))
 (let (($x9175 (exc_halt_s 4)))
 (let (($x3479 (= $x9175 $x418)))
 (let (($x6597 (forall ((n (_ BitVec 6)) )(let ((?x9232 (sc_t 3)))
 (let (($x3530 (bvsle ?x9232 n)))
 (let ((?x6558 (stack_t w_5 w_4 x_MLOAD_0 3 n)))
 (let ((?x8570 (stack_s w_5 w_4 x_MLOAD_0 4 n)))
 (let (($x2854 (= ?x8570 ?x6558)))
 (or $x2854 $x3530)))))))
 ))
 (let ((?x9232 (sc_t 3)))
 (let ((?x9433 (sc_s 4)))
 (let (($x1048 (= ?x9433 ?x9232)))
 (let ((?x3239 (used_gas_t w_5 w_4 x_MLOAD_0 0)))
 (let ((?x3975 (used_gas_s w_5 w_4 x_MLOAD_0 0)))
 (let (($x5254 (= ?x3975 ?x3239)))
 (let (($x4558 (forall ((w (_ BitVec 256)) )(let ((?x7924 (storage_t w_5 w_4 x_MLOAD_0 0 w)))
 (let ((?x11940 (storage_s w_5 w_4 x_MLOAD_0 0 w)))
 (= ?x11940 ?x7924))))
 ))
 (let (($x56 (exc_halt_t 0)))
 (let (($x57 (exc_halt_s 0)))
 (let (($x58 (= $x57 $x56)))
 (let (($x6604 (forall ((n (_ BitVec 6)) )(let ((?x1989 (stack_t w_5 w_4 x_MLOAD_0 0 n)))
 (let ((?x4267 (stack_s w_5 w_4 x_MLOAD_0 0 n)))
 (let (($x5010 (= ?x4267 ?x1989)))
 (let ((?x63 (sc_t 0)))
 (let (($x2738 (bvsle ?x63 n)))
 (or $x2738 $x5010)))))))
 ))
 (let ((?x63 (sc_t 0)))
 (let ((?x72 (sc_s 0)))
 (let (($x73 (= ?x72 ?x63)))
 (let (($x1842 (not (= ((_ extract 6 6) (bvadd (_ bv1 7) (concat (_ bv0 1) (sc_t 2)))) (_ bv0 1)))))
 (let (($x7905 (exc_halt_t 2)))
 (let (($x9131 (= $x418 (or $x7905 $x1842))))
 (let (($x7210 (forall ((w (_ BitVec 256)) )(let ((?x4280 (storage_t w_5 w_4 x_MLOAD_0 2 w)))
 (let ((?x10372 (storage_t w_5 w_4 x_MLOAD_0 3 w)))
 (= ?x10372 ?x4280))))
 ))
 (let (($x8022 (forall ((n (_ BitVec 6)) )(let ((?x4060 (stack_t w_5 w_4 x_MLOAD_0 2 n)))
 (let ((?x6558 (stack_t w_5 w_4 x_MLOAD_0 3 n)))
 (let ((?x11248 (sc_t 2)))
 (let (($x9965 (bvsle ?x11248 n)))
 (or $x9965 (= ?x6558 ?x4060)))))))
 ))
 (let (($x6668 (= ?x9232 (bvadd (_ bv1 6) (sc_t 2)))))
 (let (($x5871 (= (used_gas_t w_5 w_4 x_MLOAD_0 3) (+ 3 (used_gas_t w_5 w_4 x_MLOAD_0 2)))))
 (let (($x4506 (= $x7905 (or (exc_halt_t 1) (not (bvsle (_ bv0 6) (bvadd (_ bv63 6) (sc_t 1))))))))
 (let (($x9359 (forall ((w (_ BitVec 256)) )(let ((?x6432 (storage_t w_5 w_4 x_MLOAD_0 1 w)))
 (let ((?x4280 (storage_t w_5 w_4 x_MLOAD_0 2 w)))
 (= ?x4280 ?x6432))))
 ))
 (let (($x6173 (forall ((n (_ BitVec 6)) )(let ((?x7730 (stack_t w_5 w_4 x_MLOAD_0 1 n)))
 (let ((?x4060 (stack_t w_5 w_4 x_MLOAD_0 2 n)))
 (let ((?x9666 (sc_t 1)))
 (let ((?x10665 (bvadd (_ bv63 6) ?x9666)))
 (let (($x5116 (bvsle ?x10665 n)))
 (or $x5116 (= ?x4060 ?x7730))))))))
 ))
 (let ((?x9666 (sc_t 1)))
 (let ((?x11248 (sc_t 2)))
 (let (($x5105 (= ?x11248 ?x9666)))
 (let ((?x3310 (used_gas_t w_5 w_4 x_MLOAD_0 2)))
 (let ((?x9721 (f_MLOAD w_5 w_4 x_MLOAD_0 (stack_t w_5 w_4 x_MLOAD_0 1 (bvadd (_ bv63 6) ?x9666)))))
 (let (($x4852 (exc_halt_t 1)))
 (let (($x489 (= $x4852 (or $x56 (not (= ((_ extract 6 6) (bvadd (_ bv1 7) (concat (_ bv0 1) ?x63))) (_ bv0 1)))))))
 (let (($x2779 (forall ((w (_ BitVec 256)) )(let ((?x7924 (storage_t w_5 w_4 x_MLOAD_0 0 w)))
 (let ((?x6432 (storage_t w_5 w_4 x_MLOAD_0 1 w)))
 (= ?x6432 ?x7924))))
 ))
 (let (($x6897 (forall ((n (_ BitVec 6)) )(let ((?x1989 (stack_t w_5 w_4 x_MLOAD_0 0 n)))
 (let ((?x7730 (stack_t w_5 w_4 x_MLOAD_0 1 n)))
 (let ((?x63 (sc_t 0)))
 (let (($x2738 (bvsle ?x63 n)))
 (or $x2738 (= ?x7730 ?x1989)))))))
 ))
 (let (($x3631 (= ?x9666 (bvadd (_ bv1 6) ?x63))))
 (let (($x10301 (= $x9175 (or (exc_halt_s 3) (not (bvsle (_ bv0 6) (bvadd (_ bv62 6) (sc_s 3))))))))
 (let (($x369 (forall ((w (_ BitVec 256)) )(let ((?x6551 (storage_s w_5 w_4 x_MLOAD_0 3 w)))
 (let ((?x8608 (storage_s w_5 w_4 x_MLOAD_0 4 w)))
 (= ?x8608 ?x6551))))
 ))
 (let (($x9619 (forall ((n (_ BitVec 6)) )(let ((?x3851 (sc_s 3)))
 (let ((?x3651 (bvadd (_ bv62 6) ?x3851)))
 (let (($x3189 (bvsle ?x3651 n)))
 (let ((?x7031 (stack_s w_5 w_4 x_MLOAD_0 3 n)))
 (let ((?x8570 (stack_s w_5 w_4 x_MLOAD_0 4 n)))
 (or (= ?x8570 ?x7031) $x3189)))))))
 ))
 (let ((?x3851 (sc_s 3)))
 (let (($x2630 (= ?x9433 ?x3851)))
 (let (($x1083 (= (used_gas_s w_5 w_4 x_MLOAD_0 4) (+ 3 (used_gas_s w_5 w_4 x_MLOAD_0 3)))))
 (let ((?x3690 (bvadd (_ bv63 6) ?x3851)))
 (let ((?x1182 (stack_s w_5 w_4 x_MLOAD_0 3 ?x3690)))
 (let (($x1883 (= (stack_s w_5 w_4 x_MLOAD_0 4 (bvadd (_ bv63 6) ?x9433)) (stack_s w_5 w_4 x_MLOAD_0 3 (bvadd (_ bv62 6) ?x3851)))))
 (let (($x8103 (exc_halt_s 3)))
 (let (($x2165 (= $x8103 (or (exc_halt_s 2) (not (bvsle (_ bv0 6) (bvadd (_ bv63 6) (sc_s 2))))))))
 (let (($x3700 (forall ((w (_ BitVec 256)) )(let ((?x2822 (storage_s w_5 w_4 x_MLOAD_0 2 w)))
 (let ((?x6551 (storage_s w_5 w_4 x_MLOAD_0 3 w)))
 (= ?x6551 ?x2822))))
 ))
 (let (($x5135 (forall ((n (_ BitVec 6)) )(let ((?x2272 (sc_s 2)))
 (let ((?x9840 (bvadd (_ bv63 6) ?x2272)))
 (let (($x7477 (bvsle ?x9840 n)))
 (let ((?x8685 (stack_s w_5 w_4 x_MLOAD_0 2 n)))
 (let ((?x7031 (stack_s w_5 w_4 x_MLOAD_0 3 n)))
 (or (= ?x7031 ?x8685) $x7477)))))))
 ))
 (let ((?x2272 (sc_s 2)))
 (let (($x8449 (= ?x3851 ?x2272)))
 (let ((?x8377 (used_gas_s w_5 w_4 x_MLOAD_0 3)))
 (let ((?x444 (f_MLOAD w_5 w_4 x_MLOAD_0 (stack_s w_5 w_4 x_MLOAD_0 2 (bvadd (_ bv63 6) ?x2272)))))
 (let (($x672 (not (= ((_ extract 6 6) (bvadd (_ bv1 7) (concat (_ bv0 1) (sc_s 1)))) (_ bv0 1)))))
 (let (($x8780 (exc_halt_s 1)))
 (let (($x10052 (exc_halt_s 2)))
 (let (($x4433 (= $x10052 (or $x8780 $x672))))
 (let (($x1847 (forall ((w (_ BitVec 256)) )(let ((?x11214 (storage_s w_5 w_4 x_MLOAD_0 1 w)))
 (let ((?x2822 (storage_s w_5 w_4 x_MLOAD_0 2 w)))
 (= ?x2822 ?x11214))))
 ))
 (let (($x282 (forall ((n (_ BitVec 6)) )(let ((?x9754 (stack_s w_5 w_4 x_MLOAD_0 1 n)))
 (let ((?x8685 (stack_s w_5 w_4 x_MLOAD_0 2 n)))
 (let ((?x154 (sc_s 1)))
 (let (($x9053 (bvsle ?x154 n)))
 (or $x9053 (= ?x8685 ?x9754)))))))
 ))
 (let (($x7044 (= ?x2272 (bvadd (_ bv1 6) (sc_s 1)))))
 (let ((?x9528 (used_gas_s w_5 w_4 x_MLOAD_0 2)))
 (let (($x10729 (= $x8780 (or $x57 (not (= ((_ extract 6 6) (bvadd (_ bv1 7) (concat (_ bv0 1) ?x72))) (_ bv0 1)))))))
 (let (($x5921 (forall ((w (_ BitVec 256)) )(let ((?x11940 (storage_s w_5 w_4 x_MLOAD_0 0 w)))
 (let ((?x11214 (storage_s w_5 w_4 x_MLOAD_0 1 w)))
 (= ?x11214 ?x11940))))
 ))
 (let (($x10719 (forall ((n (_ BitVec 6)) )(let ((?x4267 (stack_s w_5 w_4 x_MLOAD_0 0 n)))
 (let ((?x9754 (stack_s w_5 w_4 x_MLOAD_0 1 n)))
 (let ((?x72 (sc_s 0)))
 (let (($x8299 (bvsle ?x72 n)))
 (or $x8299 (= ?x9754 ?x4267)))))))
 ))
 (let ((?x154 (sc_s 1)))
 (let (($x4778 (= ?x154 (bvadd (_ bv1 6) ?x72))))
 (let (($x4295 (forall ((w0 (_ BitVec 256)) )(let ((?x4051 (ite (= (stack_s w_5 w_4 x_MLOAD_0 2 (bvadd (_ bv63 6) (sc_s 2))) w0) x_MLOAD_0 (_ bv0 256))))
 (let ((?x875 (f_MLOAD w_5 w_4 x_MLOAD_0 w0)))
 (= ?x875 ?x4051))))
 ))
 (let (($x2033 (forall ((w (_ BitVec 256)) )(let ((?x11940 (storage_s w_5 w_4 x_MLOAD_0 0 w)))
 (= ?x11940 (_ bv0 256))))
 ))
 (let (($x9579 (= ?x3975 0)))
 (let (($x2276 (not $x57)))
 (let (($x4825 (= ?x72 (_ bv0 6))))
 (and $x4825 $x2276 $x9579 $x2033 $x4295 (= (stack_s w_5 w_4 x_MLOAD_0 1 ?x72) w_5) (= (used_gas_s w_5 w_4 x_MLOAD_0 1) (+ 3 ?x3975)) $x4778 $x10719 $x5921 $x10729 (= (stack_s w_5 w_4 x_MLOAD_0 2 ?x154) w_4) (= ?x9528 (+ 3 (used_gas_s w_5 w_4 x_MLOAD_0 1))) $x7044 $x282 $x1847 $x4433 (= ?x1182 ?x444) (= ?x8377 (+ 3 ?x9528)) $x8449 $x5135 $x3700 $x2165 $x1883 (= (stack_s w_5 w_4 x_MLOAD_0 4 (bvadd (_ bv62 6) ?x9433)) ?x1182) $x1083 $x2630 $x9619 $x369 $x10301 (= (stack_t w_5 w_4 x_MLOAD_0 1 ?x63) w_4) (= (used_gas_t w_5 w_4 x_MLOAD_0 1) (+ 3 ?x3239)) $x3631 $x6897 $x2779 $x489 (= (stack_t w_5 w_4 x_MLOAD_0 2 (bvadd (_ bv63 6) ?x11248)) ?x9721) (= ?x3310 (+ 3 (used_gas_t w_5 w_4 x_MLOAD_0 1))) $x5105 $x6173 $x9359 $x4506 (= (stack_t w_5 w_4 x_MLOAD_0 3 ?x11248) w_5) $x5871 $x6668 $x8022 $x7210 $x9131 $x73 $x6604 $x58 $x4558 $x5254 (not (and $x1048 $x6597 $x3479 $x4771))))))))))))))))))))))))))))))))))))))))))))))))))))))))))))))))))))))))))))))
 )
(check-sat)
(get-proof)
